% Logging successfully configured
%%%mzn-stat: initTime=0.078822676
%%%mzn-stat: objective=936
%%%mzn-stat: nodes=74
%%%mzn-stat: restarts=0
%%%mzn-stat: peakDepth=71
%%%mzn-stat: solveTime=0.000821325
%%%mzn-stat: variables=204
%%%mzn-stat: propagators=124
%%%mzn-stat: failures=3
%%%mzn-stat: propagations=476
%%%mzn-stat: nogoods=3
%%%mzn-stat: numAtomicConstraintsPropagated=0
%%%mzn-stat: circuitNumber1PropagationsTotal=30
%%%mzn-stat: circuitNumber1CircuitConflicts=2
%%%mzn-stat: circuitNumber1AlldiffConflicts=0
%%%mzn-stat: circuitNumber1TotalFixedEdgesAtConflict=22
%%%mzn-stat: circuitNumber1NumberOfConflicts=2
%%%mzn-stat: circuitNumber1GacPrunings=65
%%%mzn-stat: circuitNumber1PropagationsThatGacPruned=15
%%%mzn-stat: circuitNumber1TotalPruningHallSetSize=224
%%%mzn-stat: circuitNumber1NumberOfPruningExplanations=65
%%%mzn-stat: circuitNumber1MaxPruningHallSetSize=16
%%%mzn-stat: circuitNumber1TotalSccSizeAtPruning=159
%%%mzn-stat: circuitNumber1NumberOfSccPruningCalls=15
%%%mzn-stat: circuitNumber1TotalVarsInvolvedInPruning=49
%%%mzn-stat: circuitNumber1MaxValuesPrunedFromSingleVar=4
%%%mzn-stat: circuitNumber1HallCircuitChecks=27
%%%mzn-stat: circuitNumber1HallCircuitPrunings=4
%%%mzn-stat: circuitNumber1CircuitPreventPrunings=12
%%%mzn-stat: AverageConflictSize=6
%%%mzn-stat: NumUnitNogoodsLearned=0
%%%mzn-stat: AverageLearnedNogoodLength=5.333333333333333
%%%mzn-stat: AverageBacktrackAmount=0
%%%mzn-stat: AverageLbd=3.6666666666666665
%%%mzn-stat: 2AutonomousSearchNumBackupCalled=65
%%%mzn-stat: 2AutonomousSearchNumPredicatesRemoved=0
%%%mzn-stat: 2AutonomousSearchNumCalls=66
%%%mzn-stat: 2AutonomousSearchNumPredicatesAdded=138
%%%mzn-stat: 2AutonomousSearchAverageSizeOfHeap=2.090909090909091
%%%mzn-stat: 2AutonomousSearchNumAssignedPredicatesEncountered=138
%%%mzn-stat-end
maxleg = 936;
succ = array1d(1..20,[2, 10, 4, 14, 16, 7, 5, 17, 13, 6, 9, 1, 18, 12, 20, 11, 3, 19, 15, 8]);
% time elapsed: 12.51 s
----------
%%%mzn-stat: initTime=0.078822676
%%%mzn-stat: objective=397
%%%mzn-stat: nodes=138
%%%mzn-stat: restarts=0
%%%mzn-stat: peakDepth=71
%%%mzn-stat: solveTime=0.001381058
%%%mzn-stat: variables=204
%%%mzn-stat: propagators=124
%%%mzn-stat: failures=5
%%%mzn-stat: propagations=723
%%%mzn-stat: nogoods=5
%%%mzn-stat: numAtomicConstraintsPropagated=0
%%%mzn-stat: circuitNumber1PropagationsTotal=52
%%%mzn-stat: circuitNumber1CircuitConflicts=2
%%%mzn-stat: circuitNumber1AlldiffConflicts=0
%%%mzn-stat: circuitNumber1TotalFixedEdgesAtConflict=22
%%%mzn-stat: circuitNumber1NumberOfConflicts=2
%%%mzn-stat: circuitNumber1GacPrunings=113
%%%mzn-stat: circuitNumber1PropagationsThatGacPruned=26
%%%mzn-stat: circuitNumber1TotalPruningHallSetSize=422
%%%mzn-stat: circuitNumber1NumberOfPruningExplanations=113
%%%mzn-stat: circuitNumber1MaxPruningHallSetSize=16
%%%mzn-stat: circuitNumber1TotalSccSizeAtPruning=237
%%%mzn-stat: circuitNumber1NumberOfSccPruningCalls=26
%%%mzn-stat: circuitNumber1TotalVarsInvolvedInPruning=87
%%%mzn-stat: circuitNumber1MaxValuesPrunedFromSingleVar=4
%%%mzn-stat: circuitNumber1HallCircuitChecks=52
%%%mzn-stat: circuitNumber1HallCircuitPrunings=6
%%%mzn-stat: circuitNumber1CircuitPreventPrunings=21
%%%mzn-stat: AverageConflictSize=4.8
%%%mzn-stat: NumUnitNogoodsLearned=0
%%%mzn-stat: AverageLearnedNogoodLength=5.2
%%%mzn-stat: AverageBacktrackAmount=0
%%%mzn-stat: AverageLbd=3.6
%%%mzn-stat: 2AutonomousSearchNumBackupCalled=119
%%%mzn-stat: 2AutonomousSearchNumPredicatesRemoved=0
%%%mzn-stat: 2AutonomousSearchNumCalls=121
%%%mzn-stat: 2AutonomousSearchNumPredicatesAdded=179
%%%mzn-stat: 2AutonomousSearchAverageSizeOfHeap=2.5041322314049586
%%%mzn-stat: 2AutonomousSearchNumAssignedPredicatesEncountered=303
%%%mzn-stat-end
maxleg = 397;
succ = array1d(1..20,[2, 10, 4, 20, 1, 12, 5, 15, 11, 6, 16, 14, 9, 3, 19, 7, 18, 13, 17, 8]);
% time elapsed: 12.51 s
----------
%%%mzn-stat: initTime=0.078822676
%%%mzn-stat: objective=332
%%%mzn-stat: nodes=193
%%%mzn-stat: restarts=0
%%%mzn-stat: peakDepth=71
%%%mzn-stat: solveTime=0.001725174
%%%mzn-stat: variables=204
%%%mzn-stat: propagators=124
%%%mzn-stat: failures=5
%%%mzn-stat: propagations=947
%%%mzn-stat: nogoods=5
%%%mzn-stat: numAtomicConstraintsPropagated=0
%%%mzn-stat: circuitNumber1PropagationsTotal=63
%%%mzn-stat: circuitNumber1CircuitConflicts=2
%%%mzn-stat: circuitNumber1AlldiffConflicts=0
%%%mzn-stat: circuitNumber1TotalFixedEdgesAtConflict=22
%%%mzn-stat: circuitNumber1NumberOfConflicts=2
%%%mzn-stat: circuitNumber1GacPrunings=147
%%%mzn-stat: circuitNumber1PropagationsThatGacPruned=31
%%%mzn-stat: circuitNumber1TotalPruningHallSetSize=620
%%%mzn-stat: circuitNumber1NumberOfPruningExplanations=147
%%%mzn-stat: circuitNumber1MaxPruningHallSetSize=17
%%%mzn-stat: circuitNumber1TotalSccSizeAtPruning=270
%%%mzn-stat: circuitNumber1NumberOfSccPruningCalls=31
%%%mzn-stat: circuitNumber1TotalVarsInvolvedInPruning=109
%%%mzn-stat: circuitNumber1MaxValuesPrunedFromSingleVar=4
%%%mzn-stat: circuitNumber1HallCircuitChecks=62
%%%mzn-stat: circuitNumber1HallCircuitPrunings=8
%%%mzn-stat: circuitNumber1CircuitPreventPrunings=26
%%%mzn-stat: AverageConflictSize=4.8
%%%mzn-stat: NumUnitNogoodsLearned=0
%%%mzn-stat: AverageLearnedNogoodLength=5.2
%%%mzn-stat: AverageBacktrackAmount=0
%%%mzn-stat: AverageLbd=3.6
%%%mzn-stat: 2AutonomousSearchNumBackupCalled=169
%%%mzn-stat: 2AutonomousSearchNumPredicatesRemoved=0
%%%mzn-stat: 2AutonomousSearchNumCalls=172
%%%mzn-stat: 2AutonomousSearchNumPredicatesAdded=179
%%%mzn-stat: 2AutonomousSearchAverageSizeOfHeap=2.7209302325581395
%%%mzn-stat: 2AutonomousSearchNumAssignedPredicatesEncountered=468
%%%mzn-stat-end
maxleg = 332;
succ = array1d(1..20,[2, 10, 4, 20, 7, 1, 6, 15, 11, 12, 16, 14, 9, 3, 19, 5, 18, 13, 17, 8]);
% time elapsed: 12.51 s
----------
==========
% time elapsed: 12.51 s
%%%mzn-stat: initTime=0.078822676
%%%mzn-stat: objective=332
%%%mzn-stat: nodes=206
%%%mzn-stat: restarts=0
%%%mzn-stat: peakDepth=71
%%%mzn-stat: solveTime=0.003616045
%%%mzn-stat: variables=204
%%%mzn-stat: propagators=124
%%%mzn-stat: failures=19
%%%mzn-stat: propagations=1293
%%%mzn-stat: nogoods=19
%%%mzn-stat: numAtomicConstraintsPropagated=0
%%%mzn-stat: circuitNumber1PropagationsTotal=125
%%%mzn-stat: circuitNumber1CircuitConflicts=3
%%%mzn-stat: circuitNumber1AlldiffConflicts=1
%%%mzn-stat: circuitNumber1TotalFixedEdgesAtConflict=34
%%%mzn-stat: circuitNumber1NumberOfConflicts=4
%%%mzn-stat: circuitNumber1GacPrunings=302
%%%mzn-stat: circuitNumber1PropagationsThatGacPruned=70
%%%mzn-stat: circuitNumber1TotalPruningHallSetSize=1206
%%%mzn-stat: circuitNumber1NumberOfPruningExplanations=302
%%%mzn-stat: circuitNumber1MaxPruningHallSetSize=17
%%%mzn-stat: circuitNumber1TotalSccSizeAtPruning=752
%%%mzn-stat: circuitNumber1NumberOfSccPruningCalls=70
%%%mzn-stat: circuitNumber1TotalVarsInvolvedInPruning=232
%%%mzn-stat: circuitNumber1MaxValuesPrunedFromSingleVar=4
%%%mzn-stat: circuitNumber1HallCircuitChecks=161
%%%mzn-stat: circuitNumber1HallCircuitPrunings=31
%%%mzn-stat: circuitNumber1CircuitPreventPrunings=67
%%%mzn-stat: AverageConflictSize=5.2105263157894735
%%%mzn-stat: NumUnitNogoodsLearned=1
%%%mzn-stat: AverageLearnedNogoodLength=8.894736842105264
%%%mzn-stat: AverageBacktrackAmount=0
%%%mzn-stat: AverageLbd=2.9473684210526314
%%%mzn-stat: 2AutonomousSearchNumBackupCalled=169
%%%mzn-stat: 2AutonomousSearchNumPredicatesRemoved=0
%%%mzn-stat: 2AutonomousSearchNumCalls=172
%%%mzn-stat: 2AutonomousSearchNumPredicatesAdded=473
%%%mzn-stat: 2AutonomousSearchAverageSizeOfHeap=2.7209302325581395
%%%mzn-stat: 2AutonomousSearchNumAssignedPredicatesEncountered=468
%%%mzn-stat-end
